NAME: random-34-31062
TYPE: TSP
COMMENT: size=34 seed=31062
DIMENSION: 70
EDGE_WEIGHT_TYPE: EUC_2D
NODE_COORD_SECTION
+0 34 443
-0 34 443
+1 104 617
-1 461 794
+2 526 607
-2 216 532
+3 787 373
-3 174 95
+4 265 565
-4 957 772
+5 137 674
-5 740 787
+6 619 397
-6 306 372
+7 705 110
-7 442 487
+8 400 876
-8 212 81
+9 501 973
-9 297 746
+10 523 871
-10 157 32
+11 731 911
-11 643 82
+12 938 49
-12 286 653
+13 801 795
-13 543 96
+14 224 498
-14 933 979
+15 64 155
-15 99 365
+16 53 965
-16 472 50
+17 103 216
-17 332 818
+18 288 358
-18 245 846
+19 390 147
-19 212 650
+20 819 410
-20 674 614
+21 111 652
-21 914 844
+22 847 276
-22 435 68
+23 69 563
-23 57 873
+24 792 961
-24 1 334
+25 279 116
-25 115 603
+26 716 64
-26 146 792
+27 381 547
-27 33 101
+28 968 654
-28 747 191
+29 390 362
-29 616 547
+30 698 271
-30 657 900
+31 892 960
-31 602 416
+32 526 283
-32 907 292
+33 241 363
-33 906 81
+34 356 590
-34 969 407
PRECEDENCE_SECTION
+0 -0
+1 -1
+2 -2
+3 -3
+4 -4
+5 -5
+6 -6
+7 -7
+8 -8
+9 -9
+10 -10
+11 -11
+12 -12
+13 -13
+14 -14
+15 -15
+16 -16
+17 -17
+18 -18
+19 -19
+20 -20
+21 -21
+22 -22
+23 -23
+24 -24
+25 -25
+26 -26
+27 -27
+28 -28
+29 -29
+30 -30
+31 -31
+32 -32
+33 -33
+34 -34
EOF
